09-routing/solutions/XSH-n20-k4-19.opt.sol
Route #1: 17 13 18 16 20
Route #2: 10 6 9 12 2
Route #3: 14 1 11 4 3
Route #4: 15 19 5 8 7
Cost 976
